Instance Name : rc104
Authors       : Shobb<shobb@narod.ru>
Date          : 2018-jun-12
Reference     : http://shobb.narod.ru/vrppd.html
Solution
Route 1 : 080 091 056 095 062 067 094 093 071 072 054 096 081
Route 2 : 092 050 033 032 030 028 026 027 029 031 034
Route 3 : 061 070 001 003 005 045 008 046 004 100 068
Route 4 : 014 047 015 011 009 087 059 074 086 057 052
Route 5 : 022 020 049 019 023 021 048 018 025 024
Route 6 : 042 044 043 038 037 035 036 040 039 041
Route 7 : 088 060 078 073 079 007 006 002 055
Route 8 : 069 098 053 012 017 016 013 010 082
Route 9 : 085 063 089 076 084 051 064 083 066
Route 10 : 090 065 099 097 075 058 077
